Using license file /home/benedond/gurobi.lic
Using gurobi.env file
Set parameter Threads to value 1
Academic license - for non-commercial use only
Changed value of parameter TimeLimit to 300.0
   Prev: inf  Min: 0.0  Max: inf  Default: inf
Gurobi Optimizer version 9.0.1 build v9.0.1rc0 (linux64)
Optimize a model with 450 rows, 220 columns and 1638 nonzeros
Model fingerprint: 0x380ab9d0
Variable types: 10 continuous, 210 integer (200 binary)
Coefficient statistics:
  Matrix range     [2e-01, 2e+03]
  Objective range  [2e-03, 8e-01]
  Bounds range     [1e+00, 1e+00]
  RHS range        [1e+00, 2e+03]

---------------------------------------------------------------------------
Multi-objectives: starting optimization with 1 objectives ... 
---------------------------------------------------------------------------
---------------------------------------------------------------------------

Multi-objectives: optimize objective 1 (min avg power cons) ...
---------------------------------------------------------------------------

Optimize a model with 450 rows, 220 columns and 1638 nonzeros
Variable types: 10 continuous, 210 integer (200 binary)
Coefficient statistics:
  Matrix range     [2e-01, 2e+03]
  Objective range  [2e-03, 8e-01]
  Bounds range     [1e+00, 1e+00]
  RHS range        [1e+00, 2e+03]
Presolve removed 341 rows and 163 columns
Presolve time: 0.01s
Presolved: 109 rows, 57 columns, 596 nonzeros
Variable types: 4 continuous, 53 integer (49 binary)
Found heuristic solution: objective 5.1065854

Root relaxation: objective 3.271258e+00, 51 iterations, 0.00 seconds

    Nodes    |    Current Node    |     Objective Bounds      |     Work
 Expl Unexpl |  Obj  Depth IntInf | Incumbent    BestBd   Gap | It/Node Time

     0     0    3.27126    0   25    5.10659    3.27126  35.9%     -    0s
H    0     0                       4.4717805    3.27126  26.8%     -    0s
H    0     0                       4.3055122    3.27126  24.0%     -    0s
H    0     0                       4.2552439    3.27126  23.1%     -    0s
     0     0    3.42728    0   33    4.25524    3.42728  19.5%     -    0s
     0     0    3.43069    0   33    4.25524    3.43069  19.4%     -    0s
     0     0    3.52261    0   31    4.25524    3.52261  17.2%     -    0s
     0     0    3.52311    0   32    4.25524    3.52311  17.2%     -    0s
     0     0    3.53476    0   32    4.25524    3.53476  16.9%     -    0s
     0     0    3.53856    0   30    4.25524    3.53856  16.8%     -    0s
     0     0    3.54456    0   31    4.25524    3.54456  16.7%     -    0s
     0     0    3.54660    0   29    4.25524    3.54660  16.7%     -    0s
     0     0    3.55611    0   31    4.25524    3.55611  16.4%     -    0s
     0     0    3.55616    0   32    4.25524    3.55616  16.4%     -    0s
     0     0    3.55641    0   30    4.25524    3.55641  16.4%     -    0s
     0     0    3.55667    0   31    4.25524    3.55667  16.4%     -    0s
     0     0    3.57454    0   30    4.25524    3.57454  16.0%     -    0s
     0     0    3.57563    0   30    4.25524    3.57563  16.0%     -    0s
     0     0    3.57685    0   30    4.25524    3.57685  15.9%     -    0s
     0     0    3.57749    0   30    4.25524    3.57749  15.9%     -    0s
     0     0    3.58452    0   33    4.25524    3.58452  15.8%     -    0s
     0     0    3.59976    0   34    4.25524    3.59976  15.4%     -    0s
     0     0    3.64138    0   30    4.25524    3.64138  14.4%     -    0s
     0     0    3.64683    0   22    4.25524    3.64683  14.3%     -    0s
     0     0    3.65631    0   29    4.25524    3.65631  14.1%     -    0s
     0     0    3.65884    0   29    4.25524    3.65884  14.0%     -    0s
     0     0    3.67966    0   24    4.25524    3.67966  13.5%     -    0s
     0     0    3.69256    0   24    4.25524    3.69256  13.2%     -    0s
     0     0    3.69290    0   23    4.25524    3.69290  13.2%     -    0s
     0     0    3.69290    0   23    4.25524    3.69290  13.2%     -    0s
     0     0    3.69290    0   23    4.25524    3.69290  13.2%     -    0s
     0     0    3.69312    0   23    4.25524    3.69312  13.2%     -    0s
     0     0    3.69331    0   23    4.25524    3.69331  13.2%     -    0s
     0     0    3.69425    0   21    4.25524    3.69425  13.2%     -    0s
     0     0    3.69561    0   23    4.25524    3.69561  13.2%     -    0s
     0     0    3.69561    0   23    4.25524    3.69561  13.2%     -    0s
     0     0    3.70034    0   23    4.25524    3.70034  13.0%     -    0s
     0     0    3.70115    0   26    4.25524    3.70115  13.0%     -    0s
     0     0    3.70160    0   23    4.25524    3.70160  13.0%     -    0s
     0     0    3.70160    0   23    4.25524    3.70160  13.0%     -    0s
     0     0    3.70425    0   28    4.25524    3.70425  12.9%     -    0s
     0     0    3.70556    0   24    4.25524    3.70556  12.9%     -    0s
     0     0    3.70556    0   20    4.25524    3.70556  12.9%     -    0s
     0     2    3.70779    0   18    4.25524    3.70779  12.9%     -    0s

Cutting planes:
  Learned: 1
  Cover: 2
  Implied bound: 3
  MIR: 11
  Relax-and-lift: 12

Explored 10 nodes (513 simplex iterations) in 0.11 seconds
Thread count was 1 (of 4 available processors)

Solution count 4: 4.25524 4.30551 4.47178 5.10659 

Optimal solution found (tolerance 1.00e-04)
Best objective 4.255243862947e+00, best bound 4.255243862947e+00, gap 0.0000%

---------------------------------------------------------------------------
Multi-objectives: solved in 0.11 seconds, solution count 4

